
  32    4
  10   10   10   10

   0   0   0   0   0   1 2 
   1   0   1   1   1   1 3 
  10   0   2   1   2   1 4 
   5   1   6   0   2   1 5 
   6   5   0   4   8   1 6 
   7   4   3   0   4   1 7 
  10   4   4   3   0   1 8 
   3   4   4   0   6   1 9 
   2   2   0   4   2   2 23 10 
   1   5   4   3   0   1 11 
   2   0   6   5   5   1 12 
   7   4   4   4   0   1 13 
   4   0   3   3   2   1 14 
   6   6   0   4   2   2 28 15 
   2   0   2   5   5   1 16 
   4   6   0   5   6   1 17 
   8   0   8   6   5   1 18 
   7   3   9   2   0   1 19 
   1   5   3   7   0   1 20 
   7   6   2   0   4   2 31 21 
   6   2   5   5   0   1 22 
   4   4   0   3   4   1 24 
   9   6   5   0   3   1 24 
   3   3   0   3  10   1 25 
   7   0   5   5   4   1 26 
  10   2   0   7   3   1 27 
   1   0   3   3   4   1 29 
   7   0   1   5   3   1 29 
   2   2   4   3   0   1 30 
   8   5   4   0   6   1 32
  10   5   0   5   1   1 32
   0   0   0   0   0   0 
